c File: flat50_3_0.col
c
c SOURCE: Joseph Culberson (joe@cs.ualberta.ca)
c DESCRIPTION: Quasi-random coloring problem
c              generated with flatness = 0
c                             probability = 0.139
c                             known coloring = 3
c                             random seed = 1055
c              Creation Date:  Tue Jun  9 12:00:06 1998
c Maximum degree = 8 Minimum degree = 1
c p edge 50 115
c cnf created by edge2cnf
p cnf 150 545
-1 -2 0
-1 -3 0
-2 -3 0
1 2 3 0
-4 -5 0
-4 -6 0
-5 -6 0
4 5 6 0
-7 -8 0
-7 -9 0
-8 -9 0
7 8 9 0
-10 -11 0
-10 -12 0
-11 -12 0
10 11 12 0
-13 -14 0
-13 -15 0
-14 -15 0
13 14 15 0
-16 -17 0
-16 -18 0
-17 -18 0
16 17 18 0
-19 -20 0
-19 -21 0
-20 -21 0
19 20 21 0
-22 -23 0
-22 -24 0
-23 -24 0
22 23 24 0
-25 -26 0
-25 -27 0
-26 -27 0
25 26 27 0
-28 -29 0
-28 -30 0
-29 -30 0
28 29 30 0
-31 -32 0
-31 -33 0
-32 -33 0
31 32 33 0
-34 -35 0
-34 -36 0
-35 -36 0
34 35 36 0
-37 -38 0
-37 -39 0
-38 -39 0
37 38 39 0
-40 -41 0
-40 -42 0
-41 -42 0
40 41 42 0
-43 -44 0
-43 -45 0
-44 -45 0
43 44 45 0
-46 -47 0
-46 -48 0
-47 -48 0
46 47 48 0
-49 -50 0
-49 -51 0
-50 -51 0
49 50 51 0
-52 -53 0
-52 -54 0
-53 -54 0
52 53 54 0
-55 -56 0
-55 -57 0
-56 -57 0
55 56 57 0
-58 -59 0
-58 -60 0
-59 -60 0
58 59 60 0
-61 -62 0
-61 -63 0
-62 -63 0
61 62 63 0
-64 -65 0
-64 -66 0
-65 -66 0
64 65 66 0
-67 -68 0
-67 -69 0
-68 -69 0
67 68 69 0
-70 -71 0
-70 -72 0
-71 -72 0
70 71 72 0
-73 -74 0
-73 -75 0
-74 -75 0
73 74 75 0
-76 -77 0
-76 -78 0
-77 -78 0
76 77 78 0
-79 -80 0
-79 -81 0
-80 -81 0
79 80 81 0
-82 -83 0
-82 -84 0
-83 -84 0
82 83 84 0
-85 -86 0
-85 -87 0
-86 -87 0
85 86 87 0
-88 -89 0
-88 -90 0
-89 -90 0
88 89 90 0
-91 -92 0
-91 -93 0
-92 -93 0
91 92 93 0
-94 -95 0
-94 -96 0
-95 -96 0
94 95 96 0
-97 -98 0
-97 -99 0
-98 -99 0
97 98 99 0
-100 -101 0
-100 -102 0
-101 -102 0
100 101 102 0
-103 -104 0
-103 -105 0
-104 -105 0
103 104 105 0
-106 -107 0
-106 -108 0
-107 -108 0
106 107 108 0
-109 -110 0
-109 -111 0
-110 -111 0
109 110 111 0
-112 -113 0
-112 -114 0
-113 -114 0
112 113 114 0
-115 -116 0
-115 -117 0
-116 -117 0
115 116 117 0
-118 -119 0
-118 -120 0
-119 -120 0
118 119 120 0
-121 -122 0
-121 -123 0
-122 -123 0
121 122 123 0
-124 -125 0
-124 -126 0
-125 -126 0
124 125 126 0
-127 -128 0
-127 -129 0
-128 -129 0
127 128 129 0
-130 -131 0
-130 -132 0
-131 -132 0
130 131 132 0
-133 -134 0
-133 -135 0
-134 -135 0
133 134 135 0
-136 -137 0
-136 -138 0
-137 -138 0
136 137 138 0
-139 -140 0
-139 -141 0
-140 -141 0
139 140 141 0
-142 -143 0
-142 -144 0
-143 -144 0
142 143 144 0
-145 -146 0
-145 -147 0
-146 -147 0
145 146 147 0
-148 -149 0
-148 -150 0
-149 -150 0
148 149 150 0
-67 -1 0
-68 -2 0
-69 -3 0
-70 -1 0
-71 -2 0
-72 -3 0
-85 -1 0
-86 -2 0
-87 -3 0
-106 -1 0
-107 -2 0
-108 -3 0
-121 -1 0
-122 -2 0
-123 -3 0
-130 -1 0
-131 -2 0
-132 -3 0
-142 -1 0
-143 -2 0
-144 -3 0
-76 -4 0
-77 -5 0
-78 -6 0
-79 -4 0
-80 -5 0
-81 -6 0
-109 -4 0
-110 -5 0
-111 -6 0
-112 -4 0
-113 -5 0
-114 -6 0
-118 -4 0
-119 -5 0
-120 -6 0
-58 -7 0
-59 -8 0
-60 -9 0
-79 -7 0
-80 -8 0
-81 -9 0
-94 -7 0
-95 -8 0
-96 -9 0
-64 -10 0
-65 -11 0
-66 -12 0
-67 -10 0
-68 -11 0
-69 -12 0
-79 -10 0
-80 -11 0
-81 -12 0
-91 -10 0
-92 -11 0
-93 -12 0
-112 -10 0
-113 -11 0
-114 -12 0
-133 -10 0
-134 -11 0
-135 -12 0
-76 -13 0
-77 -14 0
-78 -15 0
-124 -13 0
-125 -14 0
-126 -15 0
-136 -13 0
-137 -14 0
-138 -15 0
-73 -16 0
-74 -17 0
-75 -18 0
-82 -16 0
-83 -17 0
-84 -18 0
-85 -16 0
-86 -17 0
-87 -18 0
-97 -16 0
-98 -17 0
-99 -18 0
-124 -16 0
-125 -17 0
-126 -18 0
-139 -16 0
-140 -17 0
-141 -18 0
-145 -16 0
-146 -17 0
-147 -18 0
-73 -19 0
-74 -20 0
-75 -21 0
-82 -19 0
-83 -20 0
-84 -21 0
-94 -19 0
-95 -20 0
-96 -21 0
-103 -19 0
-104 -20 0
-105 -21 0
-106 -19 0
-107 -20 0
-108 -21 0
-127 -19 0
-128 -20 0
-129 -21 0
-136 -19 0
-137 -20 0
-138 -21 0
-55 -22 0
-56 -23 0
-57 -24 0
-82 -22 0
-83 -23 0
-84 -24 0
-85 -22 0
-86 -23 0
-87 -24 0
-91 -22 0
-92 -23 0
-93 -24 0
-121 -22 0
-122 -23 0
-123 -24 0
-64 -25 0
-65 -26 0
-66 -27 0
-118 -25 0
-119 -26 0
-120 -27 0
-55 -28 0
-56 -29 0
-57 -30 0
-73 -28 0
-74 -29 0
-75 -30 0
-145 -28 0
-146 -29 0
-147 -30 0
-118 -31 0
-119 -32 0
-120 -33 0
-127 -31 0
-128 -32 0
-129 -33 0
-130 -31 0
-131 -32 0
-132 -33 0
-55 -34 0
-56 -35 0
-57 -36 0
-91 -34 0
-92 -35 0
-93 -36 0
-106 -34 0
-107 -35 0
-108 -36 0
-118 -34 0
-119 -35 0
-120 -36 0
-133 -34 0
-134 -35 0
-135 -36 0
-136 -34 0
-137 -35 0
-138 -36 0
-52 -37 0
-53 -38 0
-54 -39 0
-82 -37 0
-83 -38 0
-84 -39 0
-94 -37 0
-95 -38 0
-96 -39 0
-97 -37 0
-98 -38 0
-99 -39 0
-136 -37 0
-137 -38 0
-138 -39 0
-67 -40 0
-68 -41 0
-69 -42 0
-100 -40 0
-101 -41 0
-102 -42 0
-112 -40 0
-113 -41 0
-114 -42 0
-133 -40 0
-134 -41 0
-135 -42 0
-73 -43 0
-74 -44 0
-75 -45 0
-76 -43 0
-77 -44 0
-78 -45 0
-85 -43 0
-86 -44 0
-87 -45 0
-112 -43 0
-113 -44 0
-114 -45 0
-133 -43 0
-134 -44 0
-135 -45 0
-76 -46 0
-77 -47 0
-78 -48 0
-115 -46 0
-116 -47 0
-117 -48 0
-121 -46 0
-122 -47 0
-123 -48 0
-79 -49 0
-80 -50 0
-81 -51 0
-121 -49 0
-122 -50 0
-123 -51 0
-124 -49 0
-125 -50 0
-126 -51 0
-124 -52 0
-125 -53 0
-126 -54 0
-130 -52 0
-131 -53 0
-132 -54 0
-130 -55 0
-131 -56 0
-132 -57 0
-109 -58 0
-110 -59 0
-111 -60 0
-112 -58 0
-113 -59 0
-114 -60 0
-127 -58 0
-128 -59 0
-129 -60 0
-133 -58 0
-134 -59 0
-135 -60 0
-109 -61 0
-110 -62 0
-111 -63 0
-109 -67 0
-110 -68 0
-111 -69 0
-115 -67 0
-116 -68 0
-117 -69 0
-127 -67 0
-128 -68 0
-129 -69 0
-148 -67 0
-149 -68 0
-150 -69 0
-106 -70 0
-107 -71 0
-108 -72 0
-127 -70 0
-128 -71 0
-129 -72 0
-118 -73 0
-119 -74 0
-120 -75 0
-124 -73 0
-125 -74 0
-126 -75 0
-127 -73 0
-128 -74 0
-129 -75 0
-139 -73 0
-140 -74 0
-141 -75 0
-106 -76 0
-107 -77 0
-108 -78 0
-112 -76 0
-113 -77 0
-114 -78 0
-133 -76 0
-134 -77 0
-135 -78 0
-142 -76 0
-143 -77 0
-144 -78 0
-139 -79 0
-140 -80 0
-141 -81 0
-106 -85 0
-107 -86 0
-108 -87 0
-130 -85 0
-131 -86 0
-132 -87 0
-133 -85 0
-134 -86 0
-135 -87 0
-112 -88 0
-113 -89 0
-114 -90 0
-115 -88 0
-116 -89 0
-117 -90 0
-118 -88 0
-119 -89 0
-120 -90 0
-145 -88 0
-146 -89 0
-147 -90 0
-103 -91 0
-104 -92 0
-105 -93 0
-109 -91 0
-110 -92 0
-111 -93 0
-124 -94 0
-125 -95 0
-126 -96 0
-130 -94 0
-131 -95 0
-132 -96 0
-112 -97 0
-113 -98 0
-114 -99 0
-145 -97 0
-146 -98 0
-147 -99 0
-136 -100 0
-137 -101 0
-138 -102 0
-142 -100 0
-143 -101 0
-144 -102 0
